NAME : problems/40-tsp/instance-23.tsp
COMMENT : No Comment
TYPE : TSP
DIMENSION: 40
EDGE_WEIGHT_TYPE : EUC_2D
NODE_COORD_SECTION
1 9087 3292 
2 3200 5531 
3 5946 8660 
4 1906 7343 
5 5837 9801 
6 5715 8315 
7 1159 2174 
8 6509 2130 
9 3004 558 
10 3307 2542 
11 7873 6342 
12 2677 154 
13 8441 6974 
14 4247 6411 
15 8499 5402 
16 5971 8881 
17 9147 1613 
18 1099 3521 
19 4779 7924 
20 7308 6832 
21 9517 9215 
22 7609 6474 
23 2103 5348 
24 1633 440 
25 6725 8395 
26 2511 5396 
27 2067 8103 
28 9421 9935 
29 3314 8570 
30 6267 775 
31 7009 2568 
32 7855 8360 
33 2741 787 
34 6340 956 
35 6135 5584 
36 8255 2098 
37 4733 9770 
38 1818 6270 
39 3268 2028 
40 4187 831 
EOF
